1676
36 27 68 98 21 9 94 3 67 51 65 66 42 55 14 89 35 17 90 54 18 83 8 81 44 52 32 62 15 86 13 88 80 97 41 39 33 53 24 72 38 30 87 96 76 59 50 19 25 7 47 64 40 84 45 12 20 31 43 11 16 58 77 34 1 46 73 95 60 22 5 23 74 99 82 10 61 2 4 57 75 56 6 85 93 49 37 26 48 70 28 79 78 91 92 69 71 63 29 
